\ENCODING=ISO-8859-1
\Problem name: IloCplex

Minimize
 obj1: x1 + 36.799997 x2 + 1
Subject To
 c1:  x1 + 5 x2 <= 99999
 c2:  x1 + 9.6 x2 >= 5.96
 c3:  x1 + 14.6 x2 <= 99999
 c4:  x1 + 12.6 x2 >= 6.26
 c5:  x1 + 17.6 x2 <= 99999
 c6:  x1 + 15.172311 x2 >= 6.5172311
 c7:  x1 + 20.172311 x2 <= 99999
 c8:  x1 + 16.627686 x2 >= 6.6627686
 c9:  x1 + 21.627686 x2 <= 99999
 c10: x1 + 19.199997 x2 >= 10.6347309111949
 c11: x1 + 24.199997 x2 <= 99999
 c12: x1 + 22.199997 x2 >= 10.9347309111949
 c13: x1 + 27.199997 x2 <= 99999
 c14: x1 + 31.799997 x2 >= 11.8947309111949
 c15: x1 + 36.799997 x2 <= 99999
Bounds
 5 <= x1 <= 100000
 0.1 <= x2 <= 0.333333333333333
End
